(set-logic HORN)
(declare-fun !inv0 (Int (Array Int Int) Int Int Int Int ) Bool)
(assert (forall ((MAX@0 Int)(array@0 (Array Int Int))(largest1@0 Int)(largest2@0 Int)(temp@0 Int)(i@0 Int)) (=> (and (!inv0 |MAX@0| |array@0| |largest1@0| |largest2@0| |temp@0| |i@0|) (not (< |i@0| |MAX@0|)) (not (forall ((x@0 Int)) (=> (and (<= 0 |x@0|) (< |x@0| |MAX@0|)) (<= (select |array@0| |x@0|) |largest1@0|))))) false)))
(assert (forall ((MAX@0 Int)(array@0 (Array Int Int))(largest1@0 Int)(largest2@0 Int)(temp@0 Int)(i@0 Int)) (=> (and (!inv0 |MAX@0| |array@0| |largest1@0| |largest2@0| |temp@0| |i@0|) (not (< |i@0| |MAX@0|)) (forall ((x@0 Int)) (=> (and (<= 0 |x@0|) (< |x@0| |MAX@0|)) (<= (select |array@0| |x@0|) |largest1@0|))) (not (forall ((y@0 Int)) (=> (and (<= 0 |y@0|) (< |y@0| |MAX@0|)) (or (<= (select |array@0| |y@0|) |largest2@0|) (= (select |array@0| |y@0|) |largest1@0|)))))) false)))
(assert (forall ((MAX@0 Int)(array@0 (Array Int Int))(largest1@0 Int)(largest2@0 Int)(temp@0 Int)(i@0 Int)(i@1 Int)(largest2@2 Int)) (=> (and (!inv0 |MAX@0| |array@0| |largest1@0| |largest2@2| |temp@0| |i@0|) (= |i@1| (+ |i@0| 1)) (< |i@0| |MAX@0|) (not (>= (select |array@0| |i@0|) |largest1@0|)) (> (select |array@0| |i@0|) |largest2@2|) (= |largest2@0| (select |array@0| |i@0|))) (!inv0 |MAX@0| |array@0| |largest1@0| |largest2@0| |temp@0| |i@1|))))
(assert (forall ((MAX@0 Int)(array@0 (Array Int Int))(largest1@0 Int)(largest2@0 Int)(temp@0 Int)(i@0 Int)) (=> (and (= |i@0| 2) (> |MAX@0| 0) (= |largest1@0| (select |array@0| 0)) (= |largest2@0| (select |array@0| 1)) (not (< |largest1@0| |largest2@0|))) (!inv0 |MAX@0| |array@0| |largest1@0| |largest2@0| |temp@0| |i@0|))))
(assert (forall ((MAX@0 Int)(array@0 (Array Int Int))(largest1@0 Int)(largest2@0 Int)(temp@0 Int)(i@0 Int)(largest2@1 Int)(largest1@1 Int)) (=> (and (= |i@0| 2) (> |MAX@0| 0) (= |largest1@1| (select |array@0| 0)) (= |largest2@1| (select |array@0| 1)) (< |largest1@1| |largest2@1|) (= |temp@0| |largest1@1|) (= |largest1@0| |largest2@1|) (= |largest2@0| |temp@0|)) (!inv0 |MAX@0| |array@0| |largest1@0| |largest2@0| |temp@0| |i@0|))))
(assert (forall ((MAX@0 Int)(array@0 (Array Int Int))(largest1@0 Int)(largest2@0 Int)(temp@0 Int)(i@0 Int)(i@1 Int)(largest1@1 Int)(largest2@1 Int)) (=> (and (!inv0 |MAX@0| |array@0| |largest1@1| |largest2@1| |temp@0| |i@0|) (= |i@1| (+ |i@0| 1)) (< |i@0| |MAX@0|) (>= (select |array@0| |i@0|) |largest1@1|) (= |largest2@0| |largest1@1|) (= |largest1@0| (select |array@0| |i@0|))) (!inv0 |MAX@0| |array@0| |largest1@0| |largest2@0| |temp@0| |i@1|))))
(assert (forall ((MAX@0 Int)(array@0 (Array Int Int))(largest1@0 Int)(largest2@0 Int)(temp@0 Int)(i@0 Int)(i@1 Int)) (=> (and (!inv0 |MAX@0| |array@0| |largest1@0| |largest2@0| |temp@0| |i@0|) (= |i@1| (+ |i@0| 1)) (< |i@0| |MAX@0|) (not (>= (select |array@0| |i@0|) |largest1@0|)) (not (> (select |array@0| |i@0|) |largest2@0|))) (!inv0 |MAX@0| |array@0| |largest1@0| |largest2@0| |temp@0| |i@1|))))
(check-sat)